6082.0 330400.0 
6144.0 323703.0 
6157.0 323688.0 
6143.0 324130.0 
6055.0 330505.0 
6178.0 322461.0 
6212.0 322369.0 
6289.0 322109.0 
6039.0 334677.0 
6170.0 322508.0 
6133.0 324148.0 
6053.0 331466.0 
6103.0 327046.0 
6047.0 331767.0 
